NAME: random-19-26915
TYPE: TSP
COMMENT: size=19 seed=26915
DIMENSION: 40
EDGE_WEIGHT_TYPE: EUC_2D
NODE_COORD_SECTION
+0 405 455
-0 405 455
+1 617 109
-1 658 33
+2 444 156
-2 913 915
+3 25 720
-3 719 613
+4 444 106
-4 207 27
+5 553 487
-5 491 481
+6 622 941
-6 260 170
+7 828 341
-7 608 232
+8 719 86
-8 433 597
+9 316 709
-9 354 264
+10 902 965
-10 445 868
+11 630 143
-11 620 548
+12 177 993
-12 305 869
+13 667 607
-13 377 143
+14 642 820
-14 213 635
+15 474 777
-15 270 818
+16 830 630
-16 494 346
+17 297 47
-17 698 282
+18 346 930
-18 549 310
+19 723 284
-19 963 825
PRECEDENCE_SECTION
+0 -0
+1 -1
+2 -2
+3 -3
+4 -4
+5 -5
+6 -6
+7 -7
+8 -8
+9 -9
+10 -10
+11 -11
+12 -12
+13 -13
+14 -14
+15 -15
+16 -16
+17 -17
+18 -18
+19 -19
EOF
